\ Model mip1
\ LP format - for model browsing. Use MPS format to capture full model detail.
Minimize
  C0 + C1 + C2
Subject To
 R0: 0.01 C0 - 0.19 C1 + 0.02 C2 + 0.31 C3 - 0.01 C4 + 0.19 C5 - 0.02 C6
   - 0.31 C7 <= -0.4064621329307556
 R1: - 0.04 C0 - 0.17 C1 - 0.03 C2 + 0.27 C3 + 0.04 C4 + 0.17 C5 + 0.03 C6
   - 0.27 C7 <= -0.4064621329307556
 R2: 0.01 C0 - 0.19 C1 + 0.02 C2 + 0.31 C3 - 0.01 C4 + 0.19 C5 - 0.02 C6
   - 0.31 C7 <= -0.4064621329307556
 R3: - 0.04 C0 - 0.17 C1 - 0.03 C2 + 0.27 C3 + 0.04 C4 + 0.17 C5 + 0.03 C6
   - 0.27 C7 <= -0.4064621329307556
 R4: - 0.03 C0 + 0.05 C1 - 0.07 C2 - 0.08 C3 + 0.03 C4 - 0.05 C5 + 0.07 C6
   + 0.08 C7 <= -0.4064621329307556
 R5: - 0.02 C0 - 0.23 C1 + 0.04 C2 + 0.35 C3 + 0.02 C4 + 0.23 C5 - 0.04 C6
   - 0.35 C7 <= -0.4064621329307556
 R6: - 0.02 C0 - 0.04 C1 + 0.05 C2 + 0.2 C3 + 0.02 C4 + 0.04 C5 - 0.05 C6
   - 0.2 C7 >= -0.4064621329307556
 R7: 0.06 C0 - 0.21 C1 - 0.05 C2 + 0.24 C3 - 0.06 C4 + 0.21 C5 + 0.05 C6
   - 0.24 C7 <= -0.4064621329307556
 R8: - 0.05 C0 - 0.22 C1 + 0.15 C2 + 0.64 C3 + 0.05 C4 + 0.22 C5 - 0.15 C6
   - 0.64 C7 <= -0.4064621329307556
 R9: - 0.33 C0 - 0.34 C1 + 0.08 C2 + 0.06 C3 + 0.33 C4 + 0.34 C5 - 0.08 C6
   - 0.06 C7 <= -0.4064621329307556
Bounds
 -1 <= C0 <= 1
 -1 <= C1 <= 1
 -1 <= C2 <= 1
 -1 <= C3 <= 1
 -1 <= C4 <= 1
 -1 <= C5 <= 1
 -1 <= C6 <= 1
 -1 <= C7 <= 1
End
